\ Model netmcol
\ LP format - for model browsing. Use MPS format to capture full model detail.
Minimize
  1 Ship_A_B_Product1

Subject To
  Ship_A_B_Product1 >= 10
  Ship_A_B_Product1 <= 10

Bounds
 Ship_A_B_Product1 >= 0

End